row=11;
column=11;
Board=[|1,0,1,1,1,1,1,1,1,1,1|1,1,1,1,0,1,0,0,0,0,0|0,0,0,0,0,0,0,0,0,0,0|0,0,0,1,0,0,0,0,0,1,0|0,0,0,0,0,0,0,1,0,0,0|1,0,0,0,0,0,0,0,0,0,0|0,0,0,0,0,0,0,0,0,0,0|0,0,1,0,0,0,0,0,0,1,0|0,0,0,0,0,0,0,1,0,0,0|0,1,0,0,0,1,0,0,0,0,0|0,0,0,0,0,0,0,0,0,0,0|];
right = [1,3,2,1,3,2,3,1,3,2,3];
bottom = [4,1,2,2,3,1,2,1,4,1,3];
